100 8
730 145
736 298
793 303
574 141
292 666
293 507
359 435
179 558
859 457
738 175
349 758
212 337
276 790
253 443
582 595
770 133
823 318
953 174
36 594
47 593
667 641
729 239
655 302
774 535
192 502
734 534
146 778
122 461
278 855
572 660
61 386
144 685
202 662
824 573
880 300
770 413
435 837
345 421
924 222
595 237
690 255
848 589
702 219
751 283
300 830
562 593
900 460
147 492
315 562
441 576
771 345
669 123
606 565
224 432
618 326
183 524
295 492
692 276
200 650
804 175
130 781
194 630
303 539
822 601
734 365
733 159
111 432
566 684
618 130
189 707
929 541
652 132
866 626
916 670
349 720
934 226
838 269
115 618
371 515
275 464
567 734
759 404
869 604
301 772
867 614
792 450
723 546
613 392
470 741
883 635
815 137
666 118
604 593
799 593
298 810
886 354
157 653
217 538
152 370
787 38
